100436.0
1717
0 1 3 4 6 7 8 11 13 15 19 20 21 22 23 25 26 27 28 29 31 32 33 34 35 36 37 38 40 41 43 45 47 49 50 53 55 56 57 58 61 62 63 64 65 66 67 68 69 71 73 74 75 76 77 78 79 81 82 83 84 85 86 88 89 90 91 92 94 96 97 98 